\ENCODING=ISO-8859-1
\Problem name: markshare_5_0.mps

Maximize
 MINIMIZE: 0 s1               + 1 s2               + 1 s3               -1 s4               + 1 s5               -1 x1               + 0 x2               + 1 x3               + 0 x4               + 0 x5               -1 x6               + 1 x7               + 0 x8               + 1 x9               + 0 x10              -1 x11              + 1 x12              + 0 x13              -1 x14              -1 x15              + 1 x16              + 0 x17              + 1 x18              + 0 x19              + 0 x20              + 1 x21              + 1 x22              -1 x23              + 0 x24              + 0 x25              -1 x26              + 1 x27              + 0 x28              -1 x29              -1 x30              -1 x31              -1 x32              + 1 x33              -1 x34              + 1 x35              + 0 x36              -1 x37              + 0 x38              -1 x39              + 1 x40
Subject To
 C1_: s1 + 17 x1 + 75 x2 + 9 x3 + 87 x4 + 58 x5 + 79 x6 + 69 x7 + 37 x8 + 88 x9
      + 75 x10 + 45 x11 + 35 x12 + 73 x13 + 26 x14 + 39 x15 + 78 x16 + 85 x17
      + 58 x18 + 72 x19 + 8 x20 + 46 x21 + 11 x22 + 55 x23 + 39 x24 + 57 x25
      + 96 x26 + 87 x27 + 16 x28 + 27 x29 + 26 x30 + 93 x31 + 44 x32 + 79 x33
      + 12 x34 + 8 x35 + 95 x36 + 2 x37 + 15 x38 + 38 x39 + 15 x40  = 987
 C2_: s2 + 53 x1 + 88 x2 + 43 x3 + 26 x4 + 31 x5 + 77 x6 + 10 x7 + 77 x8
      + 71 x9 + 22 x10 + 76 x11 + 41 x12 + 65 x13 + 93 x14 + 50 x15 + 69 x16
      + 44 x17 + 61 x18 + 58 x19 + 63 x20 + 46 x21 + 63 x22 + 13 x23 + 97 x24
      + 14 x25 + 45 x26 + 32 x27 + 96 x28 + 36 x29 + 40 x30 + 10 x31 + 96 x32
      + 99 x33 + 58 x34 + 87 x35 + 15 x36 + 91 x37 + 65 x38 + 6 x39 + 96 x40
       = 1111
 C3_: s3 + 97 x1 + 79 x2 + 81 x3 + 57 x4 + 28 x5 + 97 x6 + 58 x7 + 44 x8
      + 37 x9 + 93 x10 + 2 x11 + 77 x12 + 73 x13 + 59 x14 + 43 x15 + 64 x16
      + 75 x17 + 6 x18 + 5 x19 + 78 x20 + 71 x21 + 12 x22 + 30 x23 + 7 x24
      + 69 x25 + 36 x26 + 73 x27 + 19 x28 + 15 x29 + 16 x30 + 84 x31 + 55 x32
      + 32 x33 + 53 x34 + 43 x35 + 21 x36 + 73 x37 + 59 x39 + 48 x40  = 984
 C4_: s4 + 94 x1 + 76 x2 + 12 x3 + x4 + 50 x5 + 85 x6 + 86 x7 + 9 x8 + 86 x9
      + 79 x10 + 58 x11 + 10 x12 + 83 x13 + 75 x14 + 91 x15 + 51 x16 + 89 x17
      + 97 x18 + 57 x19 + 47 x20 + 42 x21 + 65 x22 + 88 x23 + 59 x24 + 22 x25
      + 100 x26 + 16 x27 + 70 x28 + 70 x29 + 99 x30 + 65 x31 + 66 x32 + 85 x33
      + 68 x34 + 97 x35 + 33 x36 + 80 x37 + 16 x38 + 87 x39 + 60 x40  = 1262
 C5_: s5 + 42 x1 + 99 x2 + 87 x3 + 46 x4 + 24 x5 + 85 x6 + 85 x7 + 74 x8
      + 13 x9 + 48 x10 + 79 x11 + 50 x12 + 57 x13 + 44 x14 + 3 x15 + 33 x16
      + 43 x17 + 58 x18 + 8 x19 + 68 x20 + 59 x21 + 23 x22 + 75 x23 + 96 x24
      + 87 x25 + 7 x26 + 54 x27 + 38 x28 + 72 x30 + 5 x31 + 2 x32 + 76 x33
      + 63 x34 + 94 x35 + 55 x36 + 41 x37 + 39 x38 + 19 x39 + 31 x40  = 991
Bounds
 0 <= x1 <= 1
 0 <= x2 <= 1
 0 <= x3 <= 1
 0 <= x4 <= 1
 0 <= x5 <= 1
 0 <= x6 <= 1
 0 <= x7 <= 1
 0 <= x8 <= 1
 0 <= x9 <= 1
 0 <= x10 <= 1
 0 <= x11 <= 1
 0 <= x12 <= 1
 0 <= x13 <= 1
 0 <= x14 <= 1
 0 <= x15 <= 1
 0 <= x16 <= 1
 0 <= x17 <= 1
 0 <= x18 <= 1
 0 <= x19 <= 1
 0 <= x20 <= 1
 0 <= x21 <= 1
 0 <= x22 <= 1
 0 <= x23 <= 1
 0 <= x24 <= 1
 0 <= x25 <= 1
 0 <= x26 <= 1
 0 <= x27 <= 1
 0 <= x28 <= 1
 0 <= x29 <= 1
 0 <= x30 <= 1
 0 <= x31 <= 1
 0 <= x32 <= 1
 0 <= x33 <= 1
 0 <= x34 <= 1
 0 <= x35 <= 1
 0 <= x36 <= 1
 0 <= x37 <= 1
 0 <= x38 <= 1
 0 <= x39 <= 1
 0 <= x40 <= 1
Binaries
 x1  x2  x3  x4  x5  x6  x7  x8  x9  x10  x11  x12  x13  x14  x15  x16  x17 
 x18  x19  x20  x21  x22  x23  x24  x25  x26  x27  x28  x29  x30  x31  x32 
 x33  x34  x35  x36  x37  x38  x39  x40 
End
